CNAME : TestFile
COMMENT : Christofides, Mingozzi and Toth, 1981
TYPE : CVRP
DIMENSION : 16
EDGE_WEIGHT_TYPE : EUC_2D
CAPACITY : 3.5
VEHICLES : 3
NODE_COORD_SECTION
0 150 250
1 151 264
2 159 261
3 130 254
4 128 252
5 163 247
6 146 246
7 161 242
8 142 239
9 163 236
10 148 232
DEMAND_SECTION
0 0.0
1 1.1
2 0.7
3 0.8
4 0.4
5 2.1
6 0.4
7 0.8
8 0.1
9 0.5
10 0.6
DEPOT_SECTION
0
EOF